\ Model Cutting Stock Problem with Waste Minimization and Maximum Utilization
\ LP format - for model browsing. Use MPS format to capture full model detail.
Minimize
  - 487048.2366026802 x[0] - 724005.475175662 x[1] - 433423.386377636 x[2]
   - 947383.5600893608 x[3] - 160660.8290288954 x[4]
   - 969130.8141136423 x[5] - 60700.65628004097 x[6]
   - 961477.9771857372 x[7] - 67839.17322007837 x[8]
   - 323959.2179009175 x[9] - 477223.5506118077 x[10]
   - 290032.5339089059 x[11] - 235917.2673765118 x[12]
   + 2.2851155152735195e+08 Constant
Subject To
 R0: 487048.2366026802 x[0] + 724005.475175662 x[1] + 433423.386377636 x[2]
   + 947383.5600893608 x[3] + 160660.8290288954 x[4]
   + 969130.8141136423 x[5] + 60700.65628004097 x[6]
   + 961477.9771857372 x[7] + 67839.17322007837 x[8]
   + 323959.2179009175 x[9] + 477223.5506118077 x[10]
   + 290032.5339089059 x[11] + 235917.2673765118 x[12]
   <= 2.2851155152735195e+08
 R1: x[0] >= 64
 R2: x[1] >= 28
 R3: x[2] >= 54
 R4: x[3] >= 63
 R5: x[4] >= 2
 R6: x[5] >= 40
 R7: x[6] >= 81
 R8: x[7] >= 21
 R9: x[8] >= 44
 R10: x[9] >= 81
 R11: x[10] >= 40
 R12: x[11] >= 88
 R13: x[12] >= 80
 R14: 487048.2366026802 x[0] + 724005.475175662 x[1]
   + 433423.386377636 x[2] + 947383.5600893608 x[3]
   + 160660.8290288954 x[4] + 969130.8141136423 x[5]
   + 60700.65628004097 x[6] + 961477.9771857372 x[7]
   + 67839.17322007837 x[8] + 323959.2179009175 x[9]
   + 477223.5506118077 x[10] + 290032.5339089059 x[11]
   + 235917.2673765118 x[12] >= 2.1708597395098433e+08
Bounds
 Constant = 1
End
